n_res = 4;
rc = [ 11, 13, 15, 14 ];
n_tasks = 30;
d = [ 10, 8, 6, 6, 3, 8, 1, 6, 2, 8, 2, 10, 3, 2, 7, 3, 6, 3, 1, 1, 3, 2, 2, 10, 8, 7, 1, 6, 10, 4 ];
rr = [| 11, 11, 11, 11, 11, 11, 11, 11, 11, 11, 11, 11, 11, 11, 11, 11, 11, 11, 11, 11, 11, 11, 11, 11, 11, 11, 11, 11, 11, 11
      | 13, 13, 13, 13, 13, 13, 13, 13, 13, 13, 13, 13, 13, 13, 13, 13, 13, 13, 13, 13, 13, 13, 13, 13, 13, 13, 13, 13, 13, 13
      | 15, 15, 15, 15, 15, 15, 15, 15, 15, 15, 15, 15, 15, 15, 15, 15, 15, 15, 15, 15, 15, 15, 15, 15, 15, 15, 15, 15, 15, 15
      | 14, 14, 14, 14, 14, 14, 14, 14, 14, 14, 14, 14, 14, 14, 14, 14, 14, 14, 14, 14, 14, 14, 14, 14, 14, 14, 14, 14, 14, 14|];
suc = [ { 4, 8 },
       { 6, 7, 15 },
       { 26, 30 },
       { 5, 9, 10 },
       { 25, 27 },
       { 26 },
       { 14 },
       { 11, 13, 18 },
       { 12, 17, 21 },
       { 16, 27 },
       { 12, 24 },
       { 15, 25 },
       { 16, 19, 24 },
       { 16, 19 },
       { 23 },
       { 29 },
       { 22, 24, 25 },
       { 21, 22, 23 },
       { 20, 23, 28 },
       { 21, 22 },
       { 27 },
       { 26, 30 },
       { 30 },
       { 28 },
       { 28 },
       { 29 },
       { 29 },
       {  },
       {  },
       {  } ];
